(set-logic QF_S)
(declare-fun var0 () Bool)
(declare-fun var1 () Bool)
(declare-fun var2 () String)
(declare-fun var3 () String)
(declare-fun var4 () Int)
(declare-fun var5 () String)
(declare-fun var6 () String)
(assert (not var0))
(assert (not (not var1)))
(assert (> (str.indexof var2 var3 var4) (str.len "w.0!'")))
(assert (str.in.re (str.replace "Y8y[|j]SCt" var5 var6) (re.+ re.allchar)))
(check-sat)